certificates/rado_a9_c183_N22.drat
-22 0
7 0
-19 0
4 0
10 0
20 0
0
